NAME           C:\Bruker\Hvattum\knapsack\Problems\class1\100-5-26.mps
ROWS
 N  OBJ
 L  CONSTR1
 L  CONSTR2
 L  CONSTR3
 L  CONSTR4
 L  CONSTR5
COLUMNS
    INT0001   'MARKER'  'INTORG'
    X1        OBJ       976
    X1        CONSTR1   1
    X1        CONSTR2   823
    X1        CONSTR3   769
    X1        CONSTR4   752
    X1        CONSTR5   409
    X2        OBJ       412
    X2        CONSTR1   168
    X2        CONSTR2   433
    X2        CONSTR3   4
    X2        CONSTR4   381
    X2        CONSTR5   826
    X3        OBJ       1112
    X3        CONSTR1   750
    X3        CONSTR2   582
    X3        CONSTR3   953
    X3        CONSTR4   341
    X3        CONSTR5   613
    X4        OBJ       860
    X4        CONSTR1   725
    X4        CONSTR2   326
    X4        CONSTR3   314
    X4        CONSTR4   953
    X4        CONSTR5   304
    X5        OBJ       865
    X5        CONSTR1   279
    X5        CONSTR2   829
    X5        CONSTR3   385
    X5        CONSTR4   921
    X5        CONSTR5   779
    X6        OBJ       245
    X6        CONSTR1   463
    X6        CONSTR2   102
    X6        CONSTR3   142
    X6        CONSTR4   378
    X6        CONSTR5   133
    X7        OBJ       836
    X7        CONSTR1   274
    X7        CONSTR2   25
    X7        CONSTR3   794
    X7        CONSTR4   159
    X7        CONSTR5   913
    X8        OBJ       522
    X8        CONSTR1   28
    X8        CONSTR2   404
    X8        CONSTR3   839
    X8        CONSTR4   748
    X8        CONSTR5   225
    X9        OBJ       743
    X9        CONSTR1   474
    X9        CONSTR2   220
    X9        CONSTR3   138
    X9        CONSTR4   752
    X9        CONSTR5   760
    X10       OBJ       735
    X10       CONSTR1   315
    X10       CONSTR2   373
    X10       CONSTR3   83
    X10       CONSTR4   64
    X10       CONSTR5   519
    X11       OBJ       576
    X11       CONSTR1   604
    X11       CONSTR2   618
    X11       CONSTR3   635
    X11       CONSTR4   597
    X11       CONSTR5   293
    X12       OBJ       790
    X12       CONSTR1   142
    X12       CONSTR2   454
    X12       CONSTR3   77
    X12       CONSTR4   934
    X12       CONSTR5   485
    X13       OBJ       354
    X13       CONSTR1   168
    X13       CONSTR2   259
    X13       CONSTR3   324
    X13       CONSTR4   724
    X13       CONSTR5   212
    X14       OBJ       688
    X14       CONSTR1   634
    X14       CONSTR2   342
    X14       CONSTR3   71
    X14       CONSTR4   607
    X14       CONSTR5   181
    X15       OBJ       943
    X15       CONSTR1   916
    X15       CONSTR2   599
    X15       CONSTR3   714
    X15       CONSTR4   101
    X15       CONSTR5   225
    X16       OBJ       706
    X16       CONSTR1   695
    X16       CONSTR2   442
    X16       CONSTR3   170
    X16       CONSTR4   688
    X16       CONSTR5   28
    X17       OBJ       987
    X17       CONSTR1   883
    X17       CONSTR2   62
    X17       CONSTR3   877
    X17       CONSTR4   894
    X17       CONSTR5   945
    X18       OBJ       1082
    X18       CONSTR1   969
    X18       CONSTR2   914
    X18       CONSTR3   654
    X18       CONSTR4   236
    X18       CONSTR5   381
    X19       OBJ       720
    X19       CONSTR1   126
    X19       CONSTR2   248
    X19       CONSTR3   477
    X19       CONSTR4   724
    X19       CONSTR5   991
    X20       OBJ       846
    X20       CONSTR1   916
    X20       CONSTR2   445
    X20       CONSTR3   5
    X20       CONSTR4   424
    X20       CONSTR5   333
    X21       OBJ       583
    X21       CONSTR1   16
    X21       CONSTR2   379
    X21       CONSTR3   13
    X21       CONSTR4   960
    X21       CONSTR5   905
    X22       OBJ       487
    X22       CONSTR1   545
    X22       CONSTR2   428
    X22       CONSTR3   92
    X22       CONSTR4   608
    X22       CONSTR5   341
    X23       OBJ       641
    X23       CONSTR1   309
    X23       CONSTR2   508
    X23       CONSTR3   734
    X23       CONSTR4   979
    X23       CONSTR5   124
    X24       OBJ       546
    X24       CONSTR1   345
    X24       CONSTR2   645
    X24       CONSTR3   571
    X24       CONSTR4   430
    X24       CONSTR5   103
    X25       OBJ       1134
    X25       CONSTR1   256
    X25       CONSTR2   849
    X25       CONSTR3   323
    X25       CONSTR4   962
    X25       CONSTR5   992
    X26       OBJ       727
    X26       CONSTR1   578
    X26       CONSTR2   15
    X26       CONSTR3   265
    X26       CONSTR4   603
    X26       CONSTR5   196
    X27       OBJ       491
    X27       CONSTR1   259
    X27       CONSTR2   590
    X27       CONSTR3   845
    X27       CONSTR4   324
    X27       CONSTR5   253
    X28       OBJ       642
    X28       CONSTR1   576
    X28       CONSTR2   474
    X28       CONSTR3   351
    X28       CONSTR4   955
    X28       CONSTR5   431
    X29       OBJ       548
    X29       CONSTR1   1
    X29       CONSTR2   194
    X29       CONSTR3   477
    X29       CONSTR4   532
    X29       CONSTR5   206
    X30       OBJ       635
    X30       CONSTR1   228
    X30       CONSTR2   527
    X30       CONSTR3   281
    X30       CONSTR4   654
    X30       CONSTR5   83
    X31       OBJ       996
    X31       CONSTR1   221
    X31       CONSTR2   548
    X31       CONSTR3   872
    X31       CONSTR4   882
    X31       CONSTR5   441
    X32       OBJ       620
    X32       CONSTR1   288
    X32       CONSTR2   472
    X32       CONSTR3   987
    X32       CONSTR4   156
    X32       CONSTR5   7
    X33       OBJ       842
    X33       CONSTR1   668
    X33       CONSTR2   20
    X33       CONSTR3   586
    X33       CONSTR4   735
    X33       CONSTR5   407
    X34       OBJ       722
    X34       CONSTR1   986
    X34       CONSTR2   951
    X34       CONSTR3   204
    X34       CONSTR4   748
    X34       CONSTR5   193
    X35       OBJ       693
    X35       CONSTR1   488
    X35       CONSTR2   265
    X35       CONSTR3   395
    X35       CONSTR4   747
    X35       CONSTR5   499
    X36       OBJ       872
    X36       CONSTR1   467
    X36       CONSTR2   886
    X36       CONSTR3   41
    X36       CONSTR4   307
    X36       CONSTR5   717
    X37       OBJ       678
    X37       CONSTR1   941
    X37       CONSTR2   659
    X37       CONSTR3   193
    X37       CONSTR4   314
    X37       CONSTR5   419
    X38       OBJ       1054
    X38       CONSTR1   917
    X38       CONSTR2   541
    X38       CONSTR3   554
    X38       CONSTR4   774
    X38       CONSTR5   346
    X39       OBJ       573
    X39       CONSTR1   55
    X39       CONSTR2   895
    X39       CONSTR3   720
    X39       CONSTR4   479
    X39       CONSTR5   116
    X40       OBJ       1000
    X40       CONSTR1   573
    X40       CONSTR2   508
    X40       CONSTR3   711
    X40       CONSTR4   935
    X40       CONSTR5   23
    X41       OBJ       972
    X41       CONSTR1   885
    X41       CONSTR2   11
    X41       CONSTR3   245
    X41       CONSTR4   878
    X41       CONSTR5   772
    X42       OBJ       961
    X42       CONSTR1   937
    X42       CONSTR2   735
    X42       CONSTR3   364
    X42       CONSTR4   1000
    X42       CONSTR5   589
    X43       OBJ       793
    X43       CONSTR1   695
    X43       CONSTR2   287
    X43       CONSTR3   461
    X43       CONSTR4   894
    X43       CONSTR5   82
    X44       OBJ       808
    X44       CONSTR1   902
    X44       CONSTR2   254
    X44       CONSTR3   718
    X44       CONSTR4   233
    X44       CONSTR5   671
    X45       OBJ       529
    X45       CONSTR1   175
    X45       CONSTR2   321
    X45       CONSTR3   287
    X45       CONSTR4   368
    X45       CONSTR5   980
    X46       OBJ       425
    X46       CONSTR1   250
    X46       CONSTR2   148
    X46       CONSTR3   467
    X46       CONSTR4   680
    X46       CONSTR5   151
    X47       OBJ       502
    X47       CONSTR1   664
    X47       CONSTR2   500
    X47       CONSTR3   320
    X47       CONSTR4   83
    X47       CONSTR5   819
    X48       OBJ       875
    X48       CONSTR1   270
    X48       CONSTR2   274
    X48       CONSTR3   738
    X48       CONSTR4   358
    X48       CONSTR5   547
    X49       OBJ       601
    X49       CONSTR1   596
    X49       CONSTR2   287
    X49       CONSTR3   874
    X49       CONSTR4   105
    X49       CONSTR5   482
    X50       OBJ       339
    X50       CONSTR1   188
    X50       CONSTR2   138
    X50       CONSTR3   106
    X50       CONSTR4   48
    X50       CONSTR5   115
    X51       OBJ       466
    X51       CONSTR1   164
    X51       CONSTR2   794
    X51       CONSTR3   34
    X51       CONSTR4   449
    X51       CONSTR5   175
    X52       OBJ       405
    X52       CONSTR1   267
    X52       CONSTR2   27
    X52       CONSTR3   160
    X52       CONSTR4   787
    X52       CONSTR5   233
    X53       OBJ       882
    X53       CONSTR1   998
    X53       CONSTR2   905
    X53       CONSTR3   396
    X53       CONSTR4   992
    X53       CONSTR5   376
    X54       OBJ       554
    X54       CONSTR1   669
    X54       CONSTR2   187
    X54       CONSTR3   58
    X54       CONSTR4   999
    X54       CONSTR5   118
    X55       OBJ       503
    X55       CONSTR1   77
    X55       CONSTR2   754
    X55       CONSTR3   327
    X55       CONSTR4   993
    X55       CONSTR5   104
    X56       OBJ       746
    X56       CONSTR1   892
    X56       CONSTR2   180
    X56       CONSTR3   920
    X56       CONSTR4   468
    X56       CONSTR5   164
    X57       OBJ       570
    X57       CONSTR1   711
    X57       CONSTR2   435
    X57       CONSTR3   81
    X57       CONSTR4   330
    X57       CONSTR5   78
    X58       OBJ       808
    X58       CONSTR1   588
    X58       CONSTR2   847
    X58       CONSTR3   321
    X58       CONSTR4   916
    X58       CONSTR5   532
    X59       OBJ       511
    X59       CONSTR1   105
    X59       CONSTR2   898
    X59       CONSTR3   193
    X59       CONSTR4   962
    X59       CONSTR5   99
    X60       OBJ       851
    X60       CONSTR1   443
    X60       CONSTR2   236
    X60       CONSTR3   191
    X60       CONSTR4   778
    X60       CONSTR5   330
    X61       OBJ       768
    X61       CONSTR1   592
    X61       CONSTR2   831
    X61       CONSTR3   815
    X61       CONSTR4   511
    X61       CONSTR5   580
    X62       OBJ       684
    X62       CONSTR1   574
    X62       CONSTR2   808
    X62       CONSTR3   593
    X62       CONSTR4   157
    X62       CONSTR5   277
    X63       OBJ       1029
    X63       CONSTR1   972
    X63       CONSTR2   998
    X63       CONSTR3   695
    X63       CONSTR4   605
    X63       CONSTR5   148
    X64       OBJ       866
    X64       CONSTR1   557
    X64       CONSTR2   979
    X64       CONSTR3   739
    X64       CONSTR4   744
    X64       CONSTR5   473
    X65       OBJ       697
    X65       CONSTR1   560
    X65       CONSTR2   240
    X65       CONSTR3   242
    X65       CONSTR4   188
    X65       CONSTR5   489
    X66       OBJ       794
    X66       CONSTR1   300
    X66       CONSTR2   359
    X66       CONSTR3   554
    X66       CONSTR4   83
    X66       CONSTR5   804
    X67       OBJ       502
    X67       CONSTR1   73
    X67       CONSTR2   913
    X67       CONSTR3   194
    X67       CONSTR4   117
    X67       CONSTR5   787
    X68       OBJ       882
    X68       CONSTR1   256
    X68       CONSTR2   408
    X68       CONSTR3   757
    X68       CONSTR4   588
    X68       CONSTR5   533
    X69       OBJ       159
    X69       CONSTR1   27
    X69       CONSTR2   463
    X69       CONSTR3   21
    X69       CONSTR4   135
    X69       CONSTR5   95
    X70       OBJ       769
    X70       CONSTR1   221
    X70       CONSTR2   434
    X70       CONSTR3   223
    X70       CONSTR4   182
    X70       CONSTR5   621
    X71       OBJ       440
    X71       CONSTR1   280
    X71       CONSTR2   466
    X71       CONSTR3   113
    X71       CONSTR4   857
    X71       CONSTR5   240
    X72       OBJ       608
    X72       CONSTR1   985
    X72       CONSTR2   152
    X72       CONSTR3   200
    X72       CONSTR4   606
    X72       CONSTR5   35
    X73       OBJ       1107
    X73       CONSTR1   534
    X73       CONSTR2   352
    X73       CONSTR3   949
    X73       CONSTR4   759
    X73       CONSTR5   859
    X74       OBJ       960
    X74       CONSTR1   621
    X74       CONSTR2   794
    X74       CONSTR3   729
    X74       CONSTR4   40
    X74       CONSTR5   812
    X75       OBJ       594
    X75       CONSTR1   302
    X75       CONSTR2   943
    X75       CONSTR3   865
    X75       CONSTR4   159
    X75       CONSTR5   687
    X76       OBJ       725
    X76       CONSTR1   402
    X76       CONSTR2   854
    X76       CONSTR3   732
    X76       CONSTR4   594
    X76       CONSTR5   930
    X77       OBJ       727
    X77       CONSTR1   467
    X77       CONSTR2   275
    X77       CONSTR3   470
    X77       CONSTR4   95
    X77       CONSTR5   37
    X78       OBJ       847
    X78       CONSTR1   155
    X78       CONSTR2   646
    X78       CONSTR3   694
    X78       CONSTR4   554
    X78       CONSTR5   110
    X79       OBJ       735
    X79       CONSTR1   240
    X79       CONSTR2   434
    X79       CONSTR3   262
    X79       CONSTR4   152
    X79       CONSTR5   260
    X80       OBJ       509
    X80       CONSTR1   862
    X80       CONSTR2   14
    X80       CONSTR3   713
    X80       CONSTR4   437
    X80       CONSTR5   470
    X81       OBJ       435
    X81       CONSTR1   321
    X81       CONSTR2   172
    X81       CONSTR3   321
    X81       CONSTR4   350
    X81       CONSTR5   212
    X82       OBJ       343
    X82       CONSTR1   83
    X82       CONSTR2   145
    X82       CONSTR3   79
    X82       CONSTR4   440
    X82       CONSTR5   713
    X83       OBJ       770
    X83       CONSTR1   93
    X83       CONSTR2   830
    X83       CONSTR3   352
    X83       CONSTR4   278
    X83       CONSTR5   501
    X84       OBJ       760
    X84       CONSTR1   709
    X84       CONSTR2   87
    X84       CONSTR3   939
    X84       CONSTR4   329
    X84       CONSTR5   356
    X85       OBJ       841
    X85       CONSTR1   57
    X85       CONSTR2   610
    X85       CONSTR3   996
    X85       CONSTR4   232
    X85       CONSTR5   526
    X86       OBJ       948
    X86       CONSTR1   216
    X86       CONSTR2   260
    X86       CONSTR3   653
    X86       CONSTR4   894
    X86       CONSTR5   722
    X87       OBJ       522
    X87       CONSTR1   734
    X87       CONSTR2   135
    X87       CONSTR3   294
    X87       CONSTR4   613
    X87       CONSTR5   282
    X88       OBJ       771
    X88       CONSTR1   22
    X88       CONSTR2   668
    X88       CONSTR3   490
    X88       CONSTR4   129
    X88       CONSTR5   220
    X89       OBJ       1109
    X89       CONSTR1   664
    X89       CONSTR2   863
    X89       CONSTR3   888
    X89       CONSTR4   578
    X89       CONSTR5   322
    X90       OBJ       870
    X90       CONSTR1   311
    X90       CONSTR2   43
    X90       CONSTR3   825
    X90       CONSTR4   543
    X90       CONSTR5   153
    X91       OBJ       923
    X91       CONSTR1   94
    X91       CONSTR2   637
    X91       CONSTR3   779
    X91       CONSTR4   532
    X91       CONSTR5   661
    X92       OBJ       775
    X92       CONSTR1   239
    X92       CONSTR2   753
    X92       CONSTR3   7
    X92       CONSTR4   643
    X92       CONSTR5   842
    X93       OBJ       723
    X93       CONSTR1   927
    X93       CONSTR2   789
    X93       CONSTR3   745
    X93       CONSTR4   248
    X93       CONSTR5   734
    X94       OBJ       798
    X94       CONSTR1   476
    X94       CONSTR2   784
    X94       CONSTR3   861
    X94       CONSTR4   82
    X94       CONSTR5   727
    X95       OBJ       640
    X95       CONSTR1   530
    X95       CONSTR2   255
    X95       CONSTR3   203
    X95       CONSTR4   507
    X95       CONSTR5   625
    X96       OBJ       948
    X96       CONSTR1   381
    X96       CONSTR2   853
    X96       CONSTR3   78
    X96       CONSTR4   753
    X96       CONSTR5   755
    X97       OBJ       1055
    X97       CONSTR1   101
    X97       CONSTR2   739
    X97       CONSTR3   848
    X97       CONSTR4   727
    X97       CONSTR5   568
    X98       OBJ       810
    X98       CONSTR1   629
    X98       CONSTR2   123
    X98       CONSTR3   533
    X98       CONSTR4   99
    X98       CONSTR5   907
    X99       OBJ       716
    X99       CONSTR1   431
    X99       CONSTR2   782
    X99       CONSTR3   572
    X99       CONSTR4   514
    X99       CONSTR5   181
    X100      OBJ       858
    X100      CONSTR1   757
    X100      CONSTR2   324
    X100      CONSTR3   118
    X100      CONSTR4   742
    X100      CONSTR5   352
    INT0001   'MARKER'  'INTEND'
RHS
    RHS10001  CONSTR1   34109
    RHS10001  CONSTR2   36215
    RHS10001  CONSTR3   34532
    RHS10001  CONSTR4   40184
    RHS10001  CONSTR5   32535
BOUNDS
 BV BND       X1        .00
 BV BND       X2        .00
 BV BND       X3        .00
 BV BND       X4        .00
 BV BND       X5        .00
 BV BND       X6        .00
 BV BND       X7        .00
 BV BND       X8        .00
 BV BND       X9        .00
 BV BND       X10       .00
 BV BND       X11       .00
 BV BND       X12       .00
 BV BND       X13       .00
 BV BND       X14       .00
 BV BND       X15       .00
 BV BND       X16       .00
 BV BND       X17       .00
 BV BND       X18       .00
 BV BND       X19       .00
 BV BND       X20       .00
 BV BND       X21       .00
 BV BND       X22       .00
 BV BND       X23       .00
 BV BND       X24       .00
 BV BND       X25       .00
 BV BND       X26       .00
 BV BND       X27       .00
 BV BND       X28       .00
 BV BND       X29       .00
 BV BND       X30       .00
 BV BND       X31       .00
 BV BND       X32       .00
 BV BND       X33       .00
 BV BND       X34       .00
 BV BND       X35       .00
 BV BND       X36       .00
 BV BND       X37       .00
 BV BND       X38       .00
 BV BND       X39       .00
 BV BND       X40       .00
 BV BND       X41       .00
 BV BND       X42       .00
 BV BND       X43       .00
 BV BND       X44       .00
 BV BND       X45       .00
 BV BND       X46       .00
 BV BND       X47       .00
 BV BND       X48       .00
 BV BND       X49       .00
 BV BND       X50       .00
 BV BND       X51       .00
 BV BND       X52       .00
 BV BND       X53       .00
 BV BND       X54       .00
 BV BND       X55       .00
 BV BND       X56       .00
 BV BND       X57       .00
 BV BND       X58       .00
 BV BND       X59       .00
 BV BND       X60       .00
 BV BND       X61       .00
 BV BND       X62       .00
 BV BND       X63       .00
 BV BND       X64       .00
 BV BND       X65       .00
 BV BND       X66       .00
 BV BND       X67       .00
 BV BND       X68       .00
 BV BND       X69       .00
 BV BND       X70       .00
 BV BND       X71       .00
 BV BND       X72       .00
 BV BND       X73       .00
 BV BND       X74       .00
 BV BND       X75       .00
 BV BND       X76       .00
 BV BND       X77       .00
 BV BND       X78       .00
 BV BND       X79       .00
 BV BND       X80       .00
 BV BND       X81       .00
 BV BND       X82       .00
 BV BND       X83       .00
 BV BND       X84       .00
 BV BND       X85       .00
 BV BND       X86       .00
 BV BND       X87       .00
 BV BND       X88       .00
 BV BND       X89       .00
 BV BND       X90       .00
 BV BND       X91       .00
 BV BND       X92       .00
 BV BND       X93       .00
 BV BND       X94       .00
 BV BND       X95       .00
 BV BND       X96       .00
 BV BND       X97       .00
 BV BND       X98       .00
 BV BND       X99       .00
 BV BND       X100      .00
ENDATA
